50 11160

207
269
296
294
328
422
150
396
346
198
107
319
157
114
359
184
427
460
456
474
469
241
251
376
258
79
343
164
340
486
290
117
405
163
416
490
492
76
37
130
180
168
408
302
200
143
144
132
468
220
